0 118 
1 120 
2 121 
3 120 
4 120 
5 116 
6 113 
7 110 
8 109 
9 107 
10 107 
11 108 
12 110 
13 108 
14 106 
15 103 
16 103 
17 103 
18 100 
19 99 
20 94 
21 97 
22 98 
23 97 
24 94 
25 91 
26 88 
27 86 
28 84 
29 79 
30 75 
31 71 
32 69 
33 67 
34 65 
35 65 
36 64 
37 63 
38 62 
39 62 
40 61 
41 58 
42 58 
43 52 
44 51 
45 49 
46 49 
47 48 
48 47 
49 44 
50 42 
51 40 
52 42 
53 40 
54 42 
55 43 
56 41 
57 38 
58 34 
59 36 
60 32 
61 31 
62 28 
63 24 
64 24 
65 23 
66 22 
67 20 
68 17 
69 11 
70 13 
71 12 
72 11 
73 10 
74 9 
75 6 
76 9 
77 9 
78 7 
79 6 
80 5 
81 4 
82 4 
83 3 
84 3 
85 3 
86 2 
87 2 
88 1 
89 0 
90 0 

